2000, 3999997000
4002001, 745
4002002, 958
4002003, 616
4002004, 59
4002005, 1
4002006, 166
4002007, 870
4002008, 611
4002009, 803
4002010, 138
4002011, 261
4002012, 534
4002013, 139
4002014, 26
4002015, 746
4002016, 11
4002017, 642
4002018, 25
4002019, 70
4002020, 415
4002021, 529
4002022, 705
4002023, 819
4002024, 901
4002025, 588
4002026, 827
4002027, 71
4002028, 262
4002029, 639
4002030, 892
4002031, 560
4002032, 330
4002033, 852
4002034, 657
4002035, 582
4002036, 661
4002037, 427
4002038, 947
4002039, 84
4002040, 898
4002041, 232
4002042, 699
4002043, 519
4002044, 491
4002045, 657
4002046, 951
4002047, 540
4002048, 806
4002049, 709
4002050, 874
4002051, 709
4002052, 224
4002053, 525
4002054, 328
4002055, 541
4002056, 710
4002057, 405
4002058, 598
4002059, 975
4002060, 591
4002061, 75
4002062, 158
4002063, 754
4002064, 339
4002065, 983
4002066, 504
4002067, 23
4002068, 70
4002069, 417
4002070, 162
4002071, 401
4002072, 397
4002073, 742
4002074, 657
4002075, 515
4002076, 151
4002077, 827
4002078, 741
4002079, 149
4002080, 236
4002081, 575
4002082, 672
4002083, 463
4002084, 689
4002085, 853
4002086, 7
4002087, 644
4002088, 834
4002089, 463
4002090, 271
4002091, 608
4002092, 534
4002093, 996
4002094, 312
4002095, 986
4002096, 247
4002097, 402
4002098, 957
4002099, 762
4002100, 78
4002101, 68
4002102, 146
4002103, 611
4002104, 794
4002105, 468
4002106, 548
4002107, 10
4002108, 154
4002109, 913
4002110, 372
4002111, 748
4002112, 790
4002113, 674
4002114, 996
4002115, 619
4002116, 73
4002117, 209
4002118, 215
4002119, 42
4002120, 9
4002121, 313
4002122, 53
4002123, 860
4002124, 717
4002125, 944
4002126, 268
4002127, 952
4002128, 365
4002129, 157
4002130, 175
4002131, 935
4002132, 726
4002133, 66
4002134, 843
4002135, 812
4002136, 915
4002137, 850
4002138, 669
4002139, 450
4002140, 556
4002141, 500
4002142, 972
4002143, 730
4002144, 442
4002145, 870
4002146, 476
4002147, 754
4002148, 504
4002149, 586
4002150, 185
4002151, 766
4002152, 787
4002153, 211
4002154, 928
4002155, 970
4002156, 507
4002157, 224
4002158, 73
4002159, 604
4002160, 535
4002161, 936
4002162, 871
4002163, 727
4002164, 900
4002165, 236
4002166, 365
4002167, 355
4002168, 687
4002169, 513
4002170, 530
4002171, 381
4002172, 165
4002173, 282
4002174, 582
4002175, 861
4002176, 938
4002177, 9
4002178, 754
4002179, 458
4002180, 438
4002181, 326
4002182, 219
4002183, 207
4002184, 17
4002185, 622
4002186, 88
4002187, 633
4002188, 48
4002189, 517
4002190, 15
4002191, 527
4002192, 44
4002193, 948
4002194, 883
4002195, 88
4002196, 738
4002197, 699
4002198, 352
4002199, 432
4002200, 725
4002201, 223
4002202, 525
4002203, 298
4002204, 662
4002205, 197
4002206, 472
4002207, 822
4002208, 164
4002209, 964
4002210, 453
4002211, 628
4002212, 868
4002213, 447
4002214, 919
4002215, 567
4002216, 881
4002217, 352
4002218, 885
4002219, 483
4002220, 596
4002221, 686
4002222, 750
4002223, 463
4002224, 981
4002225, 543
4002226, 388
4002227, 836
4002228, 103
4002229, 646
4002230, 653
4002231, 443
4002232, 183
4002233, 245
4002234, 852
4002235, 881
4002236, 517
4002237, 868
4002238, 268
4002239, 134
4002240, 258
4002241, 360
4002242, 957
4002243, 73
4002244, 792
4002245, 460
4002246, 204
4002247, 973
4002248, 853
4002249, 235
4002250, 327
4002251, 552
4002252, 487
4002253, 626
4002254, 342
4002255, 814
4002256, 736
4002257, 571
4002258, 3
4002259, 769
4002260, 459
4002261, 621
4002262, 562
4002263, 516
4002264, 509
4002265, 12
4002266, 417
4002267, 970
4002268, 180
4002269, 430
4002270, 553
4002271, 164
4002272, 971
4002273, 27
4002274, 210
4002275, 272
4002276, 68
4002277, 165
4002278, 714
4002279, 162
4002280, 259
4002281, 957
4002282, 727
4002283, 574
4002284, 481
4002285, 435
4002286, 751
4002287, 691
4002288, 774
4002289, 526
4002290, 223
4002291, 537
4002292, 526
4002293, 416
4002294, 921
4002295, 291
4002296, 61
4002297, 819
4002298, 875
4002299, 974
4002300, 578
4002301, 341
4002302, 463
4002303, 639
4002304, 839
4002305, 319
4002306, 965
4002307, 809
4002308, 350
4002309, 2
4002310, 473
4002311, 68
4002312, 709
4002313, 344
4002314, 203
4002315, 446
4002316, 723
4002317, 600
4002318, 810
4002319, 590
4002320, 664
4002321, 730
4002322, 240
4002323, 763
4002324, 624
4002325, 935
4002326, 584
4002327, 25
4002328, 456
4002329, 562
4002330, 2
4002331, 723
4002332, 719
4002333, 785
4002334, 710
4002335, 369
4002336, 670
4002337, 91
4002338, 756
4002339, 956
4002340, 360
4002341, 19
4002342, 354
4002343, 925
4002344, 778
4002345, 419
4002346, 805
4002347, 185
4002348, 499
4002349, 178
4002350, 181
4002351, 271
4002352, 965
4002353, 302
4002354, 670
4002355, 903
4002356, 210
4002357, 914
4002358, 401
4002359, 436
4002360, 951
4002361, 961
4002362, 975
4002363, 355
4002364, 427
4002365, 600
4002366, 462
4002367, 689
4002368, 944
4002369, 431
4002370, 440
4002371, 577
4002372, 817
4002373, 344
4002374, 155
4002375, 139
4002376, 722
4002377, 622
4002378, 708
4002379, 613
4002380, 971
4002381, 215
4002382, 458
4002383, 254
4002384, 493
4002385, 162
4002386, 785
4002387, 253
4002388, 690
4002389, 201
4002390, 339
4002391, 398
4002392, 960
4002393, 768
4002394, 856
4002395, 340
4002396, 118
4002397, 867
4002398, 783
4002399, 952
4002400, 478
4002401, 171
4002402, 122
4002403, 648
4002404, 361
4002405, 89
4002406, 62
4002407, 864
4002408, 285
4002409, 937
4002410, 696
4002411, 852
4002412, 922
4002413, 808
4002414, 352
4002415, 875
4002416, 384
4002417, 942
4002418, 121
4002419, 109
4002420, 786
4002421, 765
4002422, 510
4002423, 253
4002424, 677
4002425, 223
4002426, 407
4002427, 192
4002428, 601
4002429, 363
4002430, 689
4002431, 556
4002432, 646
4002433, 439
4002434, 681
4002435, 929
4002436, 72
4002437, 887
4002438, 545
4002439, 643
4002440, 828
4002441, 285
4002442, 777
4002443, 829
4002444, 904
4002445, 646
4002446, 263
4002447, 902
4002448, 126
4002449, 347
4002450, 182
4002451, 768
4002452, 224
4002453, 388
4002454, 11
4002455, 331
4002456, 5
4002457, 30
4002458, 42
4002459, 614
4002460, 138
4002461, 910
4002462, 469
4002463, 854
4002464, 522
4002465, 404
4002466, 469
4002467, 605
4002468, 622
4002469, 617
4002470, 830
4002471, 508
4002472, 69
4002473, 176
4002474, 711
4002475, 888
4002476, 109
4002477, 536
4002478, 647
4002479, 528
4002480, 799
4002481, 591
4002482, 577
4002483, 804
4002484, 870
4002485, 152
4002486, 768
4002487, 791
4002488, 704
4002489, 286
4002490, 171
4002491, 790
4002492, 723
4002493, 774
4002494, 857
4002495, 655
4002496, 625
4002497, 592
4002498, 366
4002499, 890
4002500, 860
4002501, 582
4002502, 788
4002503, 803
4002504, 690
4002505, 284
4002506, 634
4002507, 181
4002508, 97
4002509, 421
4002510, 408
4002511, 103
4002512, 987
4002513, 348
4002514, 896
4002515, 547
4002516, 595
4002517, 768
4002518, 318
4002519, 906
4002520, 150
4002521, 445
4002522, 625
4002523, 360
4002524, 203
4002525, 74
4002526, 183
4002527, 822
4002528, 179
4002529, 757
4002530, 4
4002531, 738
4002532, 840
4002533, 600
4002534, 819
4002535, 864
4002536, 193
4002537, 567
4002538, 171
4002539, 100
4002540, 788
4002541, 607
4002542, 795
4002543, 197
4002544, 843
4002545, 952
4002546, 917
4002547, 588
4002548, 991
4002549, 716
4002550, 310
4002551, 842
4002552, 711
4002553, 909
4002554, 524
4002555, 125
4002556, 546
4002557, 58
4002558, 478
4002559, 26
4002560, 96
4002561, 186
4002562, 183
4002563, 28
4002564, 532
4002565, 350
4002566, 979
4002567, 851
4002568, 740
4002569, 667
4002570, 472
4002571, 846
4002572, 367
4002573, 373
4002574, 854
4002575, 673
4002576, 765
4002577, 877
4002578, 471
4002579, 670
4002580, 659
4002581, 572
4002582, 975
4002583, 8
4002584, 276
4002585, 221
4002586, 180
4002587, 955
4002588, 384
4002589, 694
4002590, 334
4002591, 285
4002592, 704
4002593, 927
4002594, 792
4002595, 744
4002596, 431
4002597, 344
4002598, 629
4002599, 365
4002600, 186
4002601, 559
4002602, 563
4002603, 977
4002604, 448
4002605, 432
4002606, 619
4002607, 163
4002608, 403
4002609, 354
4002610, 358
4002611, 788
4002612, 741
4002613, 208
4002614, 697
4002615, 69
4002616, 99
4002617, 181
4002618, 841
4002619, 916
4002620, 397
4002621, 766
4002622, 191
4002623, 294
4002624, 555
4002625, 980
4002626, 933
4002627, 286
4002628, 681
4002629, 511
4002630, 735
4002631, 100
4002632, 627
4002633, 123
4002634, 555
4002635, 511
4002636, 809
4002637, 182
4002638, 384
4002639, 211
4002640, 452
4002641, 135
4002642, 746
4002643, 187
4002644, 798
4002645, 944
4002646, 308
4002647, 463
4002648, 566
4002649, 517
4002650, 68
4002651, 54
4002652, 793
4002653, 939
4002654, 74
4002655, 382
4002656, 681
4002657, 641
4002658, 376
4002659, 230
4002660, 570
4002661, 169
4002662, 459
4002663, 234
4002664, 79
4002665, 919
4002666, 408
4002667, 702
4002668, 25
4002669, 472
4002670, 663
4002671, 441
4002672, 72
4002673, 588
4002674, 315
4002675, 644
4002676, 407
4002677, 37
4002678, 184
4002679, 840
4002680, 211
4002681, 821
4002682, 243
4002683, 51
4002684, 108
4002685, 379
4002686, 757
4002687, 963
4002688, 171
4002689, 982
4002690, 152
4002691, 56
4002692, 826
4002693, 552
4002694, 759
4002695, 662
4002696, 143
4002697, 283
4002698, 434
4002699, 208
4002700, 784
4002701, 87
4002702, 639
4002703, 414
4002704, 975
4002705, 522
4002706, 722
4002707, 239
4002708, 615
4002709, 189
4002710, 365
4002711, 159
4002712, 604
4002713, 750
4002714, 888
4002715, 778
4002716, 919
4002717, 704
4002718, 921
4002719, 782
4002720, 656
4002721, 611
4002722, 237
4002723, 141
4002724, 937
4002725, 954
4002726, 677
4002727, 560
4002728, 801
4002729, 984
4002730, 121
4002731, 396
4002732, 294
4002733, 794
4002734, 648
4002735, 968
4002736, 369
4002737, 567
4002738, 677
4002739, 269
4002740, 14
4002741, 978
4002742, 883
4002743, 596
4002744, 840
4002745, 134
4002746, 641
4002747, 123
4002748, 761
4002749, 312
4002750, 439
4002751, 432
4002752, 415
4002753, 569
4002754, 919
4002755, 307
4002756, 920
4002757, 673
4002758, 300
4002759, 688
4002760, 319
4002761, 380
4002762, 869
4002763, 34
4002764, 715
4002765, 488
4002766, 514
4002767, 609
4002768, 350
4002769, 829
4002770, 126
4002771, 788
4002772, 667
4002773, 427
4002774, 891
4002775, 471
4002776, 7
4002777, 951
4002778, 696
4002779, 78
4002780, 369
4002781, 269
4002782, 222
4002783, 472
4002784, 578
4002785, 431
4002786, 6
4002787, 940
4002788, 109
4002789, 444
4002790, 628
4002791, 182
4002792, 159
4002793, 313
4002794, 231
4002795, 779
4002796, 503
4002797, 475
4002798, 94
4002799, 320
4002800, 191
4002801, 330
4002802, 907
4002803, 942
4002804, 361
4002805, 720
4002806, 627
4002807, 681
4002808, 154
4002809, 959
4002810, 12
4002811, 92
4002812, 73
4002813, 462
4002814, 462
4002815, 125
4002816, 808
4002817, 268
4002818, 722
4002819, 63
4002820, 514
4002821, 91
4002822, 717
4002823, 35
4002824, 411
4002825, 790
4002826, 933
4002827, 629
4002828, 667
4002829, 490
4002830, 490
4002831, 829
4002832, 906
4002833, 248
4002834, 166
4002835, 794
4002836, 405
4002837, 193
4002838, 373
4002839, 392
4002840, 167
4002841, 904
4002842, 573
4002843, 923
4002844, 856
4002845, 899
4002846, 415
4002847, 169
4002848, 737
4002849, 578
4002850, 683
4002851, 628
4002852, 430
4002853, 198
4002854, 903
4002855, 357
4002856, 882
4002857, 291
4002858, 537
4002859, 1
4002860, 525
4002861, 102
4002862, 424
4002863, 896
4002864, 553
4002865, 886
4002866, 670
4002867, 424
4002868, 712
4002869, 870
4002870, 184
4002871, 414
4002872, 384
4002873, 921
4002874, 316
4002875, 821
4002876, 686
4002877, 861
4002878, 169
4002879, 915
4002880, 310
4002881, 824
4002882, 674
4002883, 771
4002884, 265
4002885, 285
4002886, 995
4002887, 94
4002888, 996
4002889, 40
4002890, 634
4002891, 952
4002892, 495
4002893, 909
4002894, 326
4002895, 345
4002896, 83
4002897, 972
4002898, 859
4002899, 288
4002900, 667
4002901, 688
4002902, 724
4002903, 657
4002904, 235
4002905, 562
4002906, 79
4002907, 664
4002908, 940
4002909, 498
4002910, 844
4002911, 812
4002912, 205
4002913, 726
4002914, 798
4002915, 572
4002916, 923
4002917, 897
4002918, 503
4002919, 348
4002920, 361
4002921, 77
4002922, 680
4002923, 777
4002924, 728
4002925, 768
4002926, 534
4002927, 936
4002928, 816
4002929, 571
4002930, 285
4002931, 787
4002932, 836
4002933, 149
4002934, 121
4002935, 627
4002936, 978
4002937, 84
4002938, 600
4002939, 854
4002940, 608
4002941, 276
4002942, 945
4002943, 306
4002944, 600
4002945, 93
4002946, 726
4002947, 840
4002948, 916
4002949, 304
4002950, 365
4002951, 273
4002952, 249
4002953, 58
4002954, 371
4002955, 412
4002956, 424
4002957, 872
4002958, 447
4002959, 277
4002960, 416
4002961, 793
4002962, 485
4002963, 503
4002964, 261
4002965, 79
4002966, 383
4002967, 467
4002968, 220
4002969, 941
4002970, 229
4002971, 278
4002972, 660
4002973, 449
4002974, 678
4002975, 974
4002976, 469
4002977, 931
4002978, 324
4002979, 989
4002980, 516
4002981, 532
4002982, 348
4002983, 36
4002984, 285
4002985, 856
4002986, 3
4002987, 153
4002988, 831
4002989, 388
4002990, 657
4002991, 409
4002992, 187
4002993, 295
4002994, 297
4002995, 894
4002996, 693
4002997, 100
4002998, 319
4002999, 977
4003000, 825
4003001, 550
4003002, 216
4003003, 136
4003004, 902
4003005, 867
4003006, 429
4003007, 505
4003008, 174
4003009, 346
4003010, 127
4003011, 357
4003012, 339
4003013, 420
4003014, 4
4003015, 717
4003016, 395
4003017, 125
4003018, 560
4003019, 640
4003020, 845
4003021, 123
4003022, 636
4003023, 243
4003024, 578
4003025, 758
4003026, 155
4003027, 998
4003028, 60
4003029, 158
4003030, 535
4003031, 373
4003032, 617
4003033, 368
4003034, 896
4003035, 676
4003036, 632
4003037, 681
4003038, 13
4003039, 2
4003040, 530
4003041, 936
4003042, 144
4003043, 958
4003044, 82
4003045, 176
4003046, 493
4003047, 157
4003048, 381
4003049, 139
4003050, 363
4003051, 289
4003052, 834
4003053, 583
4003054, 281
4003055, 378
4003056, 651
4003057, 853
4003058, 634
4003059, 417
4003060, 826
4003061, 284
4003062, 833
4003063, 535
4003064, 404
4003065, 66
4003066, 93
4003067, 842
4003068, 673
4003069, 379
4003070, 621
4003071, 848
4003072, 681
4003073, 519
4003074, 749
4003075, 570
4003076, 872
4003077, 672
4003078, 711
4003079, 434
4003080, 690
4003081, 825
4003082, 682
4003083, 212
4003084, 303
4003085, 567
4003086, 70
4003087, 664
4003088, 416
4003089, 363
4003090, 621
4003091, 438
4003092, 687
4003093, 238
4003094, 676
4003095, 296
4003096, 507
4003097, 492
4003098, 135
4003099, 891
4003100, 89
4003101, 561
4003102, 847
4003103, 133
4003104, 235
4003105, 238
4003106, 663
4003107, 664
4003108, 532
4003109, 764
4003110, 346
4003111, 77
4003112, 458
4003113, 71
4003114, 103
4003115, 530
4003116, 706
4003117, 996
4003118, 549
4003119, 484
4003120, 767
4003121, 162
4003122, 582
4003123, 429
4003124, 347
4003125, 989
4003126, 463
4003127, 454
4003128, 364
4003129, 318
4003130, 838
4003131, 157
4003132, 456
4003133, 499
4003134, 859
4003135, 632
4003136, 312
4003137, 869
4003138, 135
4003139, 16
4003140, 408
4003141, 468
4003142, 71
4003143, 775
4003144, 461
4003145, 997
4003146, 313
4003147, 241
4003148, 181
4003149, 628
4003150, 661
4003151, 902
4003152, 994
4003153, 265
4003154, 900
4003155, 310
4003156, 503
4003157, 399
4003158, 124
4003159, 3
4003160, 185
4003161, 824
4003162, 291
4003163, 202
4003164, 806
4003165, 498
4003166, 543
4003167, 874
4003168, 265
4003169, 516
4003170, 627
4003171, 762
4003172, 803
4003173, 809
4003174, 180
4003175, 815
4003176, 683
4003177, 379
4003178, 104
4003179, 235
4003180, 183
4003181, 880
4003182, 941
4003183, 71
4003184, 600
4003185, 929
4003186, 136
4003187, 361
4003188, 34
4003189, 421
4003190, 563
4003191, 854
4003192, 672
4003193, 834
4003194, 660
4003195, 49
4003196, 612
4003197, 460
4003198, 916
4003199, 185
4003200, 492
4003201, 571
4003202, 829
4003203, 887
4003204, 686
4003205, 353
4003206, 907
4003207, 213
4003208, 796
4003209, 41
4003210, 876
4003211, 983
4003212, 448
4003213, 849
4003214, 87
4003215, 141
4003216, 929
4003217, 528
4003218, 728
4003219, 815
4003220, 755
4003221, 904
4003222, 482
4003223, 591
4003224, 907
4003225, 804
4003226, 859
4003227, 210
4003228, 256
4003229, 243
4003230, 387
4003231, 230
4003232, 931
4003233, 699
4003234, 276
4003235, 157
4003236, 895
4003237, 998
4003238, 643
4003239, 625
4003240, 89
4003241, 568
4003242, 813
4003243, 261
4003244, 48
4003245, 414
4003246, 26
4003247, 609
4003248, 813
4003249, 887
4003250, 725
4003251, 246
4003252, 252
4003253, 367
4003254, 954
4003255, 134
4003256, 545
4003257, 695
4003258, 526
4003259, 45
4003260, 604
4003261, 637
4003262, 634
4003263, 346
4003264, 861
4003265, 970
4003266, 128
4003267, 270
4003268, 375
4003269, 735
4003270, 260
4003271, 59
4003272, 936
4003273, 462
4003274, 563
4003275, 429
4003276, 935
4003277, 790
4003278, 903
4003279, 348
4003280, 429
4003281, 575
4003282, 424
4003283, 936
4003284, 452
4003285, 985
4003286, 660
4003287, 555
4003288, 226
4003289, 937
4003290, 463
4003291, 962
4003292, 238
4003293, 196
4003294, 107
4003295, 436
4003296, 458
4003297, 266
4003298, 617
4003299, 480
4003300, 911
4003301, 443
4003302, 326
4003303, 963
4003304, 147
4003305, 981
4003306, 295
4003307, 975
4003308, 174
4003309, 995
4003310, 380
4003311, 125
4003312, 359
4003313, 759
4003314, 568
4003315, 436
4003316, 467
4003317, 488
4003318, 94
4003319, 566
4003320, 247
4003321, 724
4003322, 437
4003323, 9
4003324, 152
4003325, 151
4003326, 21
4003327, 892
4003328, 722
4003329, 586
4003330, 704
4003331, 813
4003332, 125
4003333, 652
4003334, 841
4003335, 353
4003336, 609
4003337, 876
4003338, 495
4003339, 324
4003340, 843
4003341, 36
4003342, 98
4003343, 164
4003344, 685
4003345, 734
4003346, 461
4003347, 809
4003348, 161
4003349, 260
4003350, 578
4003351, 568
4003352, 734
4003353, 503
4003354, 552
4003355, 435
4003356, 921
4003357, 654
4003358, 384
4003359, 665
4003360, 21
4003361, 737
4003362, 643
4003363, 868
4003364, 747
4003365, 42
4003366, 277
4003367, 78
4003368, 514
4003369, 346
4003370, 853
4003371, 794
4003372, 912
4003373, 794
4003374, 450
4003375, 729
4003376, 166
4003377, 198
4003378, 343
4003379, 25
4003380, 815
4003381, 523
4003382, 935
4003383, 311
4003384, 312
4003385, 146
4003386, 177
4003387, 270
4003388, 162
4003389, 522
4003390, 172
4003391, 310
4003392, 27
4003393, 361
4003394, 116
4003395, 909
4003396, 488
4003397, 731
4003398, 251
4003399, 528
4003400, 70
4003401, 609
4003402, 288
4003403, 643
4003404, 611
4003405, 91
4003406, 915
4003407, 324
4003408, 505
4003409, 303
4003410, 678
4003411, 964
4003412, 403
4003413, 566
4003414, 437
4003415, 13
4003416, 694
4003417, 509
4003418, 78
4003419, 604
4003420, 881
4003421, 57
4003422, 121
4003423, 928
4003424, 492
4003425, 90
4003426, 729
4003427, 89
4003428, 428
4003429, 664
4003430, 569
4003431, 25
4003432, 717
4003433, 81
4003434, 544
4003435, 550
4003436, 430
4003437, 752
4003438, 365
4003439, 989
4003440, 472
4003441, 103
4003442, 2
4003443, 392
4003444, 199
4003445, 342
4003446, 196
4003447, 897
4003448, 759
4003449, 184
4003450, 937
4003451, 396
4003452, 815
4003453, 565
4003454, 136
4003455, 984
4003456, 713
4003457, 914
4003458, 916
4003459, 118
4003460, 423
4003461, 666
4003462, 193
4003463, 296
4003464, 847
4003465, 360
4003466, 861
4003467, 427
4003468, 368
4003469, 386
4003470, 815
4003471, 84
4003472, 466
4003473, 439
4003474, 387
4003475, 390
4003476, 226
4003477, 329
4003478, 284
4003479, 947
4003480, 139
4003481, 884
4003482, 952
4003483, 574
4003484, 493
4003485, 348
4003486, 551
4003487, 782
4003488, 777
4003489, 650
4003490, 964
4003491, 613
4003492, 906
4003493, 759
4003494, 402
4003495, 797
4003496, 901
4003497, 239
4003498, 687
4003499, 729
4003500, 105
4003501, 488
4003502, 260
4003503, 58
4003504, 928
4003505, 855
4003506, 226
4003507, 207
4003508, 627
4003509, 849
4003510, 413
4003511, 51
4003512, 306
4003513, 15
4003514, 829
4003515, 322
4003516, 561
4003517, 400
4003518, 72
4003519, 859
4003520, 147
4003521, 539
4003522, 681
4003523, 295
4003524, 227
4003525, 641
4003526, 636
4003527, 16
4003528, 669
4003529, 679
4003530, 414
4003531, 147
4003532, 673
4003533, 529
4003534, 593
4003535, 350
4003536, 432
4003537, 64
4003538, 701
4003539, 913
4003540, 4
4003541, 805
4003542, 120
4003543, 689
4003544, 148
4003545, 539
4003546, 911
4003547, 704
4003548, 565
4003549, 224
4003550, 506
4003551, 822
4003552, 145
4003553, 643
4003554, 307
4003555, 99
4003556, 284
4003557, 119
4003558, 79
4003559, 505
4003560, 457
4003561, 119
4003562, 379
4003563, 86
4003564, 209
4003565, 943
4003566, 623
4003567, 447
4003568, 571
4003569, 633
4003570, 102
4003571, 622
4003572, 605
4003573, 229
4003574, 620
4003575, 13
4003576, 473
4003577, 718
4003578, 694
4003579, 776
4003580, 152
4003581, 700
4003582, 525
4003583, 975
4003584, 58
4003585, 164
4003586, 58
4003587, 312
4003588, 627
4003589, 521
4003590, 731
4003591, 176
4003592, 912
4003593, 390
4003594, 124
4003595, 187
4003596, 447
4003597, 201
4003598, 879
4003599, 151
4003600, 466
4003601, 570
4003602, 932
4003603, 429
4003604, 132
4003605, 385
4003606, 872
4003607, 543
4003608, 1
4003609, 562
4003610, 82
4003611, 35
4003612, 82
4003613, 380
4003614, 577
4003615, 389
4003616, 334
4003617, 957
4003618, 751
4003619, 160
4003620, 970
4003621, 959
4003622, 816
4003623, 750
4003624, 66
4003625, 558
4003626, 115
4003627, 931
4003628, 245
4003629, 48
4003630, 327
4003631, 213
4003632, 876
4003633, 651
4003634, 231
4003635, 694
4003636, 466
4003637, 249
4003638, 502
4003639, 480
4003640, 565
4003641, 582
4003642, 723
4003643, 55
4003644, 91
4003645, 584
4003646, 174
4003647, 243
4003648, 982
4003649, 542
4003650, 688
4003651, 650
4003652, 768
4003653, 858
4003654, 975
4003655, 522
4003656, 287
4003657, 190
4003658, 527
4003659, 324
4003660, 361
4003661, 218
4003662, 121
4003663, 721
4003664, 649
4003665, 716
4003666, 567
4003667, 921
4003668, 648
4003669, 141
4003670, 797
4003671, 575
4003672, 107
4003673, 522
4003674, 498
4003675, 766
4003676, 891
4003677, 169
4003678, 980
4003679, 766
4003680, 528
4003681, 631
4003682, 591
4003683, 151
4003684, 957
4003685, 392
4003686, 254
4003687, 747
4003688, 143
4003689, 839
4003690, 544
4003691, 96
4003692, 45
4003693, 552
4003694, 84
4003695, 620
4003696, 489
4003697, 173
4003698, 236
4003699, 159
4003700, 420
4003701, 270
4003702, 157
4003703, 267
4003704, 765
4003705, 295
4003706, 917
4003707, 207
4003708, 507
4003709, 389
4003710, 163
4003711, 167
4003712, 950
4003713, 960
4003714, 771
4003715, 5
4003716, 601
4003717, 139
4003718, 719
4003719, 475
4003720, 530
4003721, 135
4003722, 566
4003723, 798
4003724, 640
4003725, 723
4003726, 336
4003727, 268
4003728, 284
4003729, 526
4003730, 727
4003731, 646
4003732, 40
4003733, 890
4003734, 159
4003735, 382
4003736, 746
4003737, 123
4003738, 254
4003739, 682
4003740, 393
4003741, 198
4003742, 772
4003743, 943
4003744, 398
4003745, 810
4003746, 884
4003747, 933
4003748, 564
4003749, 505
4003750, 25
4003751, 161
4003752, 65
4003753, 687
4003754, 385
4003755, 822
4003756, 402
4003757, 690
4003758, 309
4003759, 27
4003760, 162
4003761, 56
4003762, 38
4003763, 207
4003764, 939
4003765, 731
4003766, 473
4003767, 143
4003768, 474
4003769, 7
4003770, 651
4003771, 695
4003772, 7
4003773, 746
4003774, 854
4003775, 28
4003776, 770
4003777, 139
4003778, 874
4003779, 528
4003780, 927
4003781, 740
4003782, 91
4003783, 621
4003784, 386
4003785, 408
4003786, 865
4003787, 88
4003788, 931
4003789, 492
4003790, 83
4003791, 455
4003792, 827
4003793, 705
4003794, 379
4003795, 555
4003796, 821
4003797, 680
4003798, 276
4003799, 935
4003800, 405
4003801, 100
4003802, 782
4003803, 926
4003804, 284
4003805, 635
4003806, 360
4003807, 344
4003808, 145
4003809, 101
4003810, 13
4003811, 717
4003812, 128
4003813, 187
4003814, 616
4003815, 471
4003816, 671
4003817, 232
4003818, 647
4003819, 476
4003820, 460
4003821, 179
4003822, 338
4003823, 962
4003824, 200
4003825, 403
4003826, 308
4003827, 617
4003828, 94
4003829, 273
4003830, 529
4003831, 252
4003832, 643
4003833, 233
4003834, 838
4003835, 287
4003836, 255
4003837, 352
4003838, 444
4003839, 658
4003840, 179
4003841, 887
4003842, 501
4003843, 196
4003844, 673
4003845, 878
4003846, 509
4003847, 720
4003848, 759
4003849, 217
4003850, 945
4003851, 395
4003852, 107
4003853, 886
4003854, 515
4003855, 179
4003856, 927
4003857, 773
4003858, 907
4003859, 369
4003860, 30
4003861, 206
4003862, 855
4003863, 287
4003864, 525
4003865, 526
4003866, 659
4003867, 131
4003868, 539
4003869, 753
4003870, 425
4003871, 10
4003872, 832
4003873, 473
4003874, 202
4003875, 717
4003876, 689
4003877, 909
4003878, 883
4003879, 862
4003880, 546
4003881, 194
4003882, 785
4003883, 35
4003884, 402
4003885, 125
4003886, 588
4003887, 194
4003888, 146
4003889, 871
4003890, 95
4003891, 875
4003892, 541
4003893, 815
4003894, 814
4003895, 945
4003896, 169
4003897, 443
4003898, 550
4003899, 424
4003900, 421
4003901, 215
4003902, 727
4003903, 456
4003904, 120
4003905, 995
4003906, 605
4003907, 992
4003908, 104
4003909, 560
4003910, 130
4003911, 355
4003912, 584
4003913, 339
4003914, 326
4003915, 414
4003916, 303
4003917, 801
4003918, 55
4003919, 343
4003920, 520
4003921, 129
4003922, 624
4003923, 407
4003924, 460
4003925, 301
4003926, 438
4003927, 64
4003928, 481
4003929, 112
4003930, 173
4003931, 192
4003932, 398
4003933, 992
4003934, 671
4003935, 316
4003936, 132
4003937, 557
4003938, 85
4003939, 101
4003940, 734
4003941, 88
4003942, 267
4003943, 238
4003944, 705
4003945, 948
4003946, 568
4003947, 858
4003948, 196
4003949, 616
4003950, 827
4003951, 618
4003952, 473
4003953, 563
4003954, 574
4003955, 253
4003956, 26
4003957, 678
4003958, 791
4003959, 502
4003960, 580
4003961, 669
4003962, 66
4003963, 754
4003964, 862
4003965, 549
4003966, 767
4003967, 334
4003968, 842
4003969, 895
4003970, 97
4003971, 628
4003972, 987
4003973, 835
4003974, 541
4003975, 134
4003976, 685
4003977, 534
4003978, 503
4003979, 113
4003980, 200
4003981, 268
4003982, 504
4003983, 636
4003984, 461
4003985, 893
4003986, 578
4003987, 366
4003988, 454
4003989, 940
4003990, 625
4003991, 234
4003992, 978
4003993, 402
4003994, 835
4003995, 750
4003996, 870
4003997, 95
4003998, 449
4003999, 807
4004000, 660
